33 69 2121025
31 30 29 28 27 26 25 24 33 22 31 29 17 16 15 15 23 21 19 9
43 41 39 38 37 36 35 34 23 32 21 18 27 25 24 24 14 12 11 17
1333 1230 1131 1064 999 936 875 816 759 704 651 522 459 400 360 360 322 252 209 1531146
1254 1170 1412 1423 1060 1069 902 811 773 911 619 610 534 400 317 359 404 284 260 1928205
